(declare-fun var0 () String)
(assert (str.in.re var0 (re.++ (re.union (re.* (str.to.re "c")) (re.union (str.to.re "d") (str.to.re "ee"))) (re.++ (re.union (re.+ (str.to.re "a")) (re.* (str.to.re "bb"))) (re.++ (re.* (re.+ (str.to.re "999"))) (re.++ (re.* (re.* (str.to.re "8"))) (re.++ (re.* (re.* (str.to.re "777"))) (re.++ (re.* (re.+ (str.to.re "6"))) (re.++ (re.* (re.+ (str.to.re "55"))) (re.++ (re.* (re.+ (str.to.re "444"))) (re.++ (re.union (re.+ (str.to.re "222")) (re.+ (str.to.re "3"))) (re.* (re.union (str.to.re "0") (str.to.re "111"))))))))))))))
(assert (<= 226 (str.len var0)))
(check-sat)